NAME: berlin52
TYPE: TOUR
DIMENSION: 52
TOUR_SECTION
-15838824
32767
-15838824
32767
6304208
6304208
-15837888
32767
-1
1936588800
544106784
6304448
-1
-1
170486885
1162893652
6304464
171062560
1162298437
1229281119
1599359047
-1
1430593594
1144151875
1146048010
1329815365
1598313039
561
-72536956
32767
6329104
6329104
6329104
6329104
6329441
6333200
6329104
6333200
-15837888
32767
3
775239473
808520240
808779776
824193070
6304672
-1
-1
774910518
842074672
6304688
909390112
540028469
EOF